c "648531.clq"
p edge 200 784
e 1 5
e 1 6
e 1 7
e 1 8
e 1 9
e 1 10
e 1 14
e 1 16
e 1 17
e 1 18
e 1 22
e 1 25
e 1 27
e 1 32
e 1 35
e 1 36
e 1 48
e 1 90
e 1 109
e 1 117
e 1 132
e 1 133
e 1 136
e 1 138
e 1 169
e 1 185
e 1 191
e 2 5
e 2 12
e 2 42
e 2 53
e 2 62
e 2 88
e 2 97
e 2 114
e 2 177
e 3 5
e 3 6
e 3 7
e 3 8
e 3 9
e 3 13
e 3 14
e 3 16
e 3 18
e 3 20
e 3 22
e 3 25
e 3 33
e 3 39
e 3 43
e 3 44
e 3 47
e 3 48
e 3 49
e 3 50
e 3 56
e 3 58
e 3 60
e 3 61
e 3 64
e 3 66
e 3 70
e 3 85
e 3 91
e 3 99
e 3 100
e 3 111
e 3 115
e 3 121
e 3 122
e 3 124
e 3 126
e 3 127
e 3 129
e 3 137
e 3 145
e 3 151
e 3 158
e 3 187
e 3 192
e 3 195
e 3 197
e 4 5
e 4 6
e 4 8
e 4 11
e 4 17
e 4 34
e 4 35
e 4 39
e 4 81
e 4 113
e 4 158
e 4 175
e 5 6
e 5 7
e 5 9
e 5 11
e 5 14
e 5 16
e 5 20
e 5 24
e 5 28
e 5 33
e 5 34
e 5 38
e 5 49
e 5 54
e 5 59
e 5 63
e 5 64
e 5 67
e 5 69
e 5 87
e 5 92
e 5 96
e 5 97
e 5 103
e 5 125
e 5 126
e 5 134
e 5 146
e 5 155
e 5 164
e 5 170
e 5 181
e 5 190
e 5 197
e 6 7
e 6 10
e 6 22
e 6 30
e 6 32
e 6 60
e 6 81
e 6 100
e 6 121
e 6 131
e 6 141
e 6 172
e 6 185
e 7 8
e 7 11
e 7 13
e 7 15
e 7 17
e 7 20
e 7 34
e 7 38
e 7 43
e 7 50
e 7 51
e 7 56
e 7 57
e 7 61
e 7 64
e 7 68
e 7 69
e 7 72
e 7 86
e 7 87
e 7 91
e 7 102
e 7 128
e 7 143
e 7 163
e 7 176
e 7 199
e 7 200
e 8 9
e 8 10
e 8 12
e 8 13
e 8 17
e 8 18
e 8 21
e 8 22
e 8 23
e 8 25
e 8 26
e 8 27
e 8 29
e 8 31
e 8 40
e 8 41
e 8 43
e 8 46
e 8 51
e 8 54
e 8 55
e 8 61
e 8 67
e 8 69
e 8 70
e 8 71
e 8 74
e 8 75
e 8 80
e 8 82
e 8 85
e 8 86
e 8 89
e 8 90
e 8 99
e 8 102
e 8 103
e 8 106
e 8 110
e 8 112
e 8 114
e 8 118
e 8 122
e 8 127
e 8 130
e 8 132
e 8 136
e 8 139
e 8 147
e 8 153
e 8 157
e 8 175
e 8 183
e 8 185
e 8 186
e 8 196
e 9 10
e 9 15
e 9 21
e 9 26
e 9 28
e 9 30
e 9 36
e 9 42
e 9 44
e 9 59
e 9 73
e 9 75
e 9 78
e 9 98
e 9 100
e 9 107
e 9 115
e 9 127
e 9 144
e 9 147
e 9 175
e 9 178
e 9 186
e 10 11
e 10 12
e 10 13
e 10 15
e 10 19
e 10 24
e 10 29
e 10 53
e 10 62
e 10 72
e 10 93
e 10 97
e 10 101
e 10 125
e 10 137
e 10 146
e 10 165
e 10 173
e 10 177
e 10 181
e 10 196
e 11 12
e 11 19
e 11 21
e 11 30
e 11 32
e 11 35
e 11 39
e 11 40
e 11 43
e 11 53
e 11 54
e 11 82
e 11 83
e 11 92
e 11 97
e 11 109
e 11 121
e 11 127
e 11 130
e 11 147
e 11 159
e 11 162
e 11 182
e 11 197
e 12 14
e 12 23
e 12 46
e 12 57
e 12 63
e 12 114
e 12 166
e 12 167
e 12 185
e 12 191
e 13 15
e 13 19
e 13 21
e 13 24
e 13 37
e 13 62
e 13 65
e 13 70
e 13 71
e 13 108
e 13 128
e 13 144
e 13 153
e 13 184
e 14 16
e 14 39
e 14 46
e 14 56
e 14 95
e 14 104
e 14 178
e 15 18
e 15 37
e 15 40
e 15 47
e 15 52
e 15 57
e 15 63
e 15 68
e 15 71
e 15 84
e 15 89
e 15 118
e 15 133
e 15 134
e 15 138
e 15 200
e 16 19
e 16 20
e 16 23
e 16 24
e 16 30
e 16 31
e 16 38
e 16 55
e 16 68
e 16 78
e 16 79
e 16 106
e 16 117
e 16 120
e 16 153
e 16 168
e 16 174
e 16 176
e 17 28
e 17 29
e 17 32
e 17 78
e 17 80
e 17 159
e 17 161
e 17 199
e 18 25
e 18 26
e 18 58
e 18 62
e 18 66
e 18 89
e 18 143
e 18 159
e 18 160
e 18 180
e 19 27
e 19 31
e 19 36
e 19 49
e 19 53
e 19 83
e 19 94
e 19 112
e 19 114
e 19 118
e 19 126
e 19 130
e 19 134
e 19 144
e 19 161
e 19 164
e 19 170
e 20 34
e 20 37
e 20 84
e 20 120
e 20 144
e 21 23
e 21 26
e 21 41
e 21 47
e 21 59
e 21 84
e 21 109
e 21 119
e 21 130
e 21 140
e 21 141
e 21 169
e 21 170
e 21 186
e 21 191
e 22 31
e 22 44
e 22 60
e 22 96
e 22 105
e 22 115
e 22 129
e 22 137
e 22 166
e 22 192
e 23 28
e 23 33
e 23 59
e 23 84
e 23 93
e 23 103
e 24 44
e 24 45
e 24 73
e 24 80
e 25 27
e 25 29
e 25 42
e 25 106
e 25 107
e 25 155
e 26 41
e 26 57
e 26 83
e 26 95
e 26 154
e 27 33
e 27 50
e 27 52
e 27 109
e 27 158
e 27 200
e 28 38
e 28 85
e 28 103
e 28 113
e 29 52
e 29 76
e 29 112
e 29 136
e 30 37
e 30 45
e 30 74
e 30 79
e 30 94
e 30 149
e 30 155
e 30 188
e 31 35
e 31 42
e 31 86
e 31 120
e 31 137
e 31 140
e 31 150
e 31 173
e 32 36
e 33 82
e 33 124
e 34 52
e 34 72
e 34 90
e 34 92
e 34 108
e 34 110
e 34 141
e 34 173
e 35 40
e 35 60
e 35 67
e 35 118
e 35 149
e 36 51
e 36 55
e 36 75
e 36 92
e 36 102
e 36 147
e 36 148
e 36 176
e 37 50
e 37 51
e 37 73
e 37 76
e 37 77
e 37 81
e 37 87
e 37 98
e 37 99
e 37 138
e 37 150
e 37 151
e 38 56
e 38 93
e 38 122
e 38 148
e 38 160
e 38 168
e 39 55
e 39 117
e 39 135
e 39 142
e 40 41
e 40 45
e 40 48
e 40 65
e 40 77
e 40 104
e 40 129
e 40 151
e 40 166
e 41 47
e 41 76
e 41 85
e 41 116
e 41 155
e 41 181
e 42 45
e 42 78
e 43 46
e 43 75
e 43 98
e 43 99
e 43 115
e 44 69
e 44 106
e 44 154
e 45 49
e 45 58
e 45 72
e 47 48
e 47 113
e 48 77
e 48 80
e 48 86
e 48 132
e 49 58
e 49 61
e 49 65
e 49 68
e 49 76
e 49 91
e 49 105
e 49 124
e 49 174
e 50 64
e 50 77
e 50 83
e 50 95
e 50 108
e 50 119
e 50 139
e 50 140
e 50 143
e 50 152
e 50 180
e 51 54
e 51 101
e 51 104
e 51 141
e 51 158
e 51 162
e 51 179
e 52 65
e 52 98
e 52 110
e 52 111
e 52 117
e 52 123
e 52 146
e 52 178
e 52 194
e 52 195
e 53 116
e 53 119
e 53 120
e 53 134
e 53 169
e 54 177
e 54 188
e 55 136
e 55 140
e 56 152
e 56 194
e 57 63
e 57 74
e 58 74
e 59 101
e 59 161
e 59 190
e 60 66
e 60 93
e 60 95
e 61 67
e 61 71
e 61 73
e 61 107
e 61 142
e 61 145
e 61 148
e 61 168
e 61 180
e 61 190
e 62 94
e 62 159
e 62 181
e 62 183
e 62 196
e 63 88
e 64 96
e 64 126
e 64 193
e 65 66
e 65 79
e 66 70
e 66 116
e 66 143
e 66 198
e 67 105
e 67 146
e 67 167
e 68 154
e 68 176
e 68 195
e 69 107
e 69 171
e 70 96
e 70 111
e 70 124
e 70 145
e 70 154
e 70 165
e 71 123
e 72 139
e 72 163
e 73 90
e 74 82
e 74 152
e 74 186
e 75 101
e 75 164
e 75 170
e 75 184
e 76 79
e 76 142
e 76 175
e 76 182
e 76 183
e 77 128
e 77 150
e 77 151
e 77 156
e 77 166
e 77 198
e 78 81
e 78 111
e 78 131
e 78 138
e 78 191
e 79 129
e 79 156
e 80 122
e 80 131
e 81 87
e 81 88
e 81 113
e 81 135
e 81 165
e 82 88
e 82 91
e 82 194
e 84 193
e 85 182
e 87 100
e 88 89
e 88 174
e 89 108
e 89 121
e 89 133
e 90 180
e 91 192
e 93 94
e 93 162
e 94 102
e 95 125
e 95 178
e 97 193
e 98 182
e 99 105
e 99 110
e 99 142
e 99 156
e 100 104
e 100 112
e 100 125
e 101 123
e 102 133
e 102 169
e 102 196
e 105 150
e 107 128
e 107 149
e 107 167
e 108 135
e 108 167
e 108 187
e 108 197
e 109 119
e 109 132
e 109 198
e 110 174
e 110 199
e 112 116
e 112 131
e 112 157
e 112 160
e 112 162
e 114 188
e 115 184
e 116 163
e 119 189
e 120 157
e 120 168
e 120 187
e 121 179
e 122 123
e 122 172
e 124 192
e 124 198
e 125 145
e 126 135
e 126 163
e 126 171
e 126 172
e 126 189
e 127 149
e 128 152
e 128 157
e 129 139
e 129 200
e 130 189
e 131 172
e 132 156
e 136 161
e 138 171
e 140 171
e 141 177
e 142 164
e 142 193
e 144 179
e 145 194
e 146 148
e 148 160
e 148 189
e 150 153
e 152 165
e 152 179
e 154 173
e 155 190
e 173 184
e 173 187
e 173 195
e 178 183
e 181 188
e 184 199
